0000000000000000
0000000000000000
0000000000000000
0001100001100000
0000110001100000
0000111000100000
0000111000100000
0001101111100000
0001100111000000
0001100110000000
0000100011000000
0001100001100000
0001100001100000
0000000000000000
0000000000000000
0000000000000000
